1743738821901043323506,11,1,2,011,6,1,2,06,4,1,2,09,14,1,2,07,11,1,2,011,8,1,2,09,14,1,2,010,3,1,2,013,3,1,2,014,13,1,2,06,3,1,2,011,14,1,2,02,8,1,2,01,14,1,2,013,3,1,2,08,10,1,2,013,6,1,2,06,1,1,2,08,11,1,2,01,13,1,2,01,15,1,2,06,3,1,2,013,1,1,2,010,11,1,2,012,7,1,2,012,9,1,2,015,12,1,2,09,9,1,2,09,11,1,2,011,13,1,2,011,15,1,2,08,11,1,2,05,14,1,2,013,14,1,2,010,14,1,2,010,5,1,2,010,2,1,2,011,5,1,2,01,12,1,2,013,5,1,2,09,3,1,2,09,1,1,2,014,9,1,2,06,6,1,2,011,10,1,2,08,7,1,2,04,1,1,2,03,6,1,2,015,14,1,2,08,15,1,2,0